<?xml version = "1.0" standalone="yes"?>
<!-- This file has been generated by DOcplex version 2.23.222  -->
<CPLEXSolution version="1.0">
 <header
   problemName="CVRP"
   objectiveValue="15383.4"
  />
 <variables>
  <variable name="x_0_1" index="0" value="1.00000"/>
  <variable name="x_0_3" index="2" value="1.00000"/>
  <variable name="x_0_5" index="4" value="1.00000"/>
  <variable name="x_0_6" index="5" value="1.00000"/>
  <variable name="x_0_8" index="7" value="1.00000"/>
  <variable name="x_0_9" index="8" value="1.00000"/>
  <variable name="x_0_10" index="9" value="1.00000"/>
  <variable name="x_0_11" index="10" value="1.00000"/>
  <variable name="x_0_12" index="11" value="1.00000"/>
  <variable name="x_0_14" index="13" value="1.00000"/>
  <variable name="x_0_15" index="14" value="1.00000"/>
  <variable name="x_0_17" index="16" value="1.00000"/>
  <variable name="x_0_20" index="19" value="1.00000"/>
  <variable name="x_0_22" index="21" value="1.00000"/>
  <variable name="x_0_23" index="22" value="1.00000"/>
  <variable name="x_0_25" index="24" value="1.00000"/>
  <variable name="x_1_0" index="29" value="1.00000"/>
  <variable name="x_2_0" index="58" value="1.00000"/>
  <variable name="x_3_0" index="87" value="1.00000"/>
  <variable name="x_4_0" index="116" value="1.00000"/>
  <variable name="x_5_21" index="165" value="1.00000"/>
  <variable name="x_6_0" index="174" value="1.00000"/>
  <variable name="x_7_13" index="215" value="1.00000"/>
  <variable name="x_8_19" index="250" value="1.00000"/>
  <variable name="x_9_27" index="287" value="1.00000"/>
  <variable name="x_10_28" index="317" value="1.00000"/>
  <variable name="x_11_16" index="334" value="1.00000"/>
  <variable name="x_12_0" index="348" value="1.00000"/>
  <variable name="x_13_0" index="377" value="1.00000"/>
  <variable name="x_14_29" index="434" value="1.00000"/>
  <variable name="x_15_0" index="435" value="1.00000"/>
  <variable name="x_16_0" index="464" value="1.00000"/>
  <variable name="x_17_4" index="497" value="1.00000"/>
  <variable name="x_18_0" index="522" value="1.00000"/>
  <variable name="x_19_0" index="551" value="1.00000"/>
  <variable name="x_20_18" index="598" value="1.00000"/>
  <variable name="x_21_0" index="609" value="1.00000"/>
  <variable name="x_22_7" index="645" value="1.00000"/>
  <variable name="x_23_26" index="692" value="1.00000"/>
  <variable name="x_24_0" index="696" value="1.00000"/>
  <variable name="x_25_24" index="749" value="1.00000"/>
  <variable name="x_26_2" index="756" value="1.00000"/>
  <variable name="x_27_0" index="783" value="1.00000"/>
  <variable name="x_28_0" index="812" value="1.00000"/>
  <variable name="x_29_0" index="841" value="1.00000"/>
  <variable name="u_1" index="870" value="47.00000"/>
  <variable name="u_2" index="871" value="70.00000"/>
  <variable name="u_3" index="872" value="51.00000"/>
  <variable name="u_4" index="873" value="75.00000"/>
  <variable name="u_5" index="874" value="42.00000"/>
  <variable name="u_6" index="875" value="56.00000"/>
  <variable name="u_7" index="876" value="50.00000"/>
  <variable name="u_8" index="877" value="67.00000"/>
  <variable name="u_9" index="878" value="21.00000"/>
  <variable name="u_10" index="879" value="52.00000"/>
  <variable name="u_11" index="880" value="12.00000"/>
  <variable name="u_12" index="881" value="67.00000"/>
  <variable name="u_13" index="882" value="72.00000"/>
  <variable name="u_14" index="883" value="36.00000"/>
  <variable name="u_15" index="884" value="50.00000"/>
  <variable name="u_16" index="885" value="58.00000"/>
  <variable name="u_17" index="886" value="30.00000"/>
  <variable name="u_18" index="887" value="75.00000"/>
  <variable name="u_19" index="888" value="74.00000"/>
  <variable name="u_20" index="889" value="35.00000"/>
  <variable name="u_21" index="890" value="75.00000"/>
  <variable name="u_22" index="891" value="46.00000"/>
  <variable name="u_23" index="892" value="28.00000"/>
  <variable name="u_24" index="893" value="75.00000"/>
  <variable name="u_25" index="894" value="13.00000"/>
  <variable name="u_26" index="895" value="42.00000"/>
  <variable name="u_27" index="896" value="74.00000"/>
  <variable name="u_28" index="897" value="72.00000"/>
  <variable name="u_29" index="898" value="75.00000"/>
 </variables>
</CPLEXSolution>
